43
6
0 6 7 8 9 12 13 15 16 17 20 21 24 25 26 27 30 32 33 34 36 39 41 42
1 6 8 9 11 13 17 18 19 20 21 22 23 24 26 27 28 30 32 35 38 40
2 6 7 10 11 12 13 14 16 18 20 24 25 26 27 29 30 31 32 34 35 36 37 38 40 41
3 6 7 9 10 11 20 23 27 32 35 36 41
4 8 9 14 21 23 25 27 30 33 34
5 15 18 31 40
